n_res = 3;
rc = [ 4, 3, 4 ];
n_cp_res = 3;
rcp = [ 54, 53, 43 ];
n_tasks = 20;
d = [ 4, 1, 5, 2, 1, 1, 2, 1, 2, 4, 1, 4, 4, 2, 2, 5, 5, 5, 2, 5 ];
rr = [| 2, 0, 2, 1, 1, 2, 2, 1, 1, 1, 1, 0, 2, 2, 1, 1, 2, 0, 0, 0
      | 1, 0, 0, 1, 0, 0, 0, 0, 1, 1, 0, 0, 0, 1, 1, 1, 0, 0, 0, 0
      | 1, 1, 2, 0, 2, 1, 0, 1, 1, 0, 2, 0, 0, 2, 1, 2, 1, 0, 1, 0 |];
rr_c = [| 2, 8, 10, 4, 2, 1, 7, 3, 9, 3, 6, 7, 8, 7, 3, 8, 9, 1, 3, 9
     | 7, 9, 7, 1, 4, 2, 3, 5, 4, 10, 6, 6, 8, 3, 8, 6, 3, 10, 5, 10
     | 8, 6, 1, 9, 7, 2, 2, 6, 2, 4, 1, 3, 4, 2, 1, 3, 8, 7, 4, 7 |];
rr_p = [| 3, 4, 7, 10, 8, 9, 9, 2, 10, 4, 4, 7, 5, 2, 4, 6, 9, 5, 3, 6
        | 3, 3, 5, 3, 1, 7, 6, 9, 10, 7, 7, 9, 2, 1, 2, 3, 5, 9, 5, 7
        | 1, 7, 10, 3, 9, 10, 9, 5, 2, 7, 7, 7, 4, 5, 2, 6, 5, 3, 6, 10 |];
suc = [ { 20  },
        { 13, 16  },
        { 4, 13  },
        { 6, 18  },
        { 8  },
        {  },
        {  },
        {  },
        { 13  },
        { 14  },
        { 15  },
        { 14, 20  },
        { 14  },
        {  },
        { 20  },
        {  },
        {  },
        {  },
        {  },
        {  } ];